NAME : XML100_3353_12
DIMENSION : 101
NB_CLUSTERS : 4
CLUSTERING_ALG : KMeans
CLUSTERING_PARAMS : k(3)
CLUSTERS
1 0
2 4 10 13 15 17 18 20 22 26 29 34 37 38 40 46 51 55 56 59 67 73 74 78 79 82 83 87 89 91
3 5 7 8 9 12 16 23 24 25 31 32 35 45 47 48 50 52 58 61 62 63 64 65 66 68 69 70 75 77 80 86 92 93 95 96 98 99 100
4 1 2 3 6 11 14 19 21 27 28 30 33 36 39 41 42 43 44 49 53 54 57 60 71 72 76 81 84 85 88 90 94 97
EOF